17	4	3
17	24	26	15	6	36	17	
0	0	0	0	0	3	9	10	2	6	2	3	2	3	4
1	3	1	3	2	10	5	1	5	8	9	3	5	10	13
5	2	7	6	1	1	9	7	6	10	8	3	6	9	15
7	0	5	10	2	4	10	1	3	3	3	1	17
2	4	2	3	7	5	10	1	6	3	4	2	12	17
200	5	4	6	7	5	5	3	5	7	9	3	7	8	13
250	2	6	0	7	7	6	3	7	1	1	2	16	17
75	2	3	0	2	5	2	10	1	7	10	1	17
175	3	7	7	0	9	10	10	9	3	2	1	16
50	4	3	0	7	1	7	1	2	3	3	2	11	14
250	9	10	3	4	5	7	8	8	2	4	1	15
175	4	0	1	0	6	8	10	9	4	10	1	17
9	0	0	3	7	9	8	1	9	9	8	1	17
5	0	0	6	0	8	8	8	7	7	10	1	17
5	0	2	6	2	8	8	7	9	9	9	2	17	17
6	9	0	7	2	2	3	6	9	1	7	1	17
0	0	0	0	0	2	6	5	2	5	8	0
